%NProcShared=24
%Chk=ch3hgoh_gas_apfd_def2svp.chk

#Opt Freq apfd/Def2SVP test 

Optimization MeHgoh-gas-apfd-def2svp phase

0  1
C   -9.581984    2.782262    0.000136
Hg  -7.516502    2.911580   -0.084503
H   -9.993642    3.711352    0.417114
H    -9.871790    1.937966    0.640127
H   -9.983833    2.625914   -1.010138
O    -5.548146    3.132823   -0.239938
H    -5.093803    2.457942    0.277251










           





