%NProcShared=24
%Chk=Br-apfd-def2svp.chk

#Opt Freq PBE1PBE/def2svp test

Optimization Cl-simulation

-1 1
Br   0.00000 0.00000 0.00000




           





