%NProcShared=24
%Chk=input09052022v4.chk

#Opt Freq apfd/def2svp 

Optimization Cl-simulation

-1 1
Cl   0.00000 0.00000 0.00000


           





