%NProcShared=24
%Chk=input09052022v4.chk

#Opt Freq mp2/def2svp int=UltraFine scf=xqc test 

Optimization Cl-simulation

-1 1
Cl   0.00000 0.00000 0.00000




           





