%NProcShared=24
%Chk=Br-apfd-def2svp.chk

#Opt Freq apfd/def2svp 

Optimization Cl-simulation

-1 1
Br   0.00000 0.00000 0.00000




           





